benchmark/results/graph__10-1000-0.10-04_1/graph__10-1000-0.10-04_1_QuintonOs_Benders_primal_sub.lp
\ This file has been generated by DOcplex
\ ENCODING=ISO-8859-1
\Problem name: Quinton Bounded Benders_primal_sub

Maximize
 obj: tau
Subject To
 c1: tau <= 0.000999000999
 c2: y_a0_proc_0 + y_a0_proc_2 + y_a0_proc_3 - tau = 0
 c3: y_a0_proc_0 <= 1
 c4: y_a0_proc_2 <= 0
 c5: y_a0_proc_3 <= 0
 c6: tau <= 0.000942507069
 c7: y_a1_proc_0 + y_a1_proc_1 + y_a1_proc_2 + y_a1_proc_3 - tau = 0
 c8: y_a1_proc_0 <= 0
 c9: y_a1_proc_1 <= 0
 c10: y_a1_proc_2 <= 1
 c11: y_a1_proc_3 <= 0
 c12: tau <= 0.001934235977
 c13: y_a2_proc_0 + y_a2_proc_1 + y_a2_proc_2 + y_a2_proc_3 - tau = 0
 c14: y_a2_proc_0 <= 0
 c15: y_a2_proc_1 <= 0
 c16: y_a2_proc_2 <= 0
 c17: y_a2_proc_3 <= 1
 c18: tau <= 0.001272264631
 c19: y_a3_proc_0 + y_a3_proc_1 + y_a3_proc_2 + y_a3_proc_3 - tau = 0
 c20: y_a3_proc_0 <= 0
 c21: y_a3_proc_1 <= 1
 c22: y_a3_proc_2 <= 0
 c23: y_a3_proc_3 <= 0
 c24: tau <= 0.001626016260
 c25: y_a4_proc_0 + y_a4_proc_1 + y_a4_proc_2 - tau = 0
 c26: y_a4_proc_0 <= 0
 c27: y_a4_proc_1 <= 1
 c28: y_a4_proc_2 <= 0
 c29: tau <= 0.001730103806
 c30: y_a5_proc_0 + y_a5_proc_1 + y_a5_proc_2 + y_a5_proc_3 - tau = 0
 c31: y_a5_proc_0 <= 0
 c32: y_a5_proc_1 <= 0
 c33: y_a5_proc_2 <= 0
 c34: y_a5_proc_3 <= 1
 c35: tau <= 0.000942507069
 c36: y_a6_proc_0 + y_a6_proc_1 + y_a6_proc_2 + y_a6_proc_3 - tau = 0
 c37: y_a6_proc_0 <= 0
 c38: y_a6_proc_1 <= 0
 c39: y_a6_proc_2 <= 0
 c40: y_a6_proc_3 <= 1
 c41: tau <= 0.000811688312
 c42: y_a7_proc_0 + y_a7_proc_1 + y_a7_proc_3 - tau = 0
 c43: y_a7_proc_0 <= 1
 c44: y_a7_proc_1 <= 0
 c45: y_a7_proc_3 <= 0
 c46: tau <= 0.000831255195
 c47: y_a8_proc_0 + y_a8_proc_1 + y_a8_proc_2 - tau = 0
 c48: y_a8_proc_0 <= 0
 c49: y_a8_proc_1 <= 0
 c50: y_a8_proc_2 <= 1
 c51: tau <= 0.001562500000
 c52: y_a9_proc_0 + y_a9_proc_1 + y_a9_proc_2 + y_a9_proc_3 - tau = 0
 c53: y_a9_proc_0 <= 0
 c54: y_a9_proc_1 <= 1
 c55: y_a9_proc_2 <= 0
 c56: y_a9_proc_3 <= 0
 c57: u_a1 - u_a0 - 1001 y_a0_proc_0 - 898 y_a0_proc_2 - 1070 y_a0_proc_3 >= -1
 c58: u_a2 - u_a1 - 1229 y_a1_proc_0 - 799 y_a1_proc_1 - 1061 y_a1_proc_2
      - 1159 y_a1_proc_3 >= -1
 c59: u_a3 - u_a1 - 1229 y_a1_proc_0 - 799 y_a1_proc_1 - 1061 y_a1_proc_2
      - 1159 y_a1_proc_3 >= 0
 c60: u_a4 - u_a3 - 962 y_a3_proc_0 - 786 y_a3_proc_1 - 1112 y_a3_proc_2
      - 908 y_a3_proc_3 >= 0
 c61: u_a0 - u_a5 - 676 y_a5_proc_0 - 1122 y_a5_proc_1 - 795 y_a5_proc_2
      - 578 y_a5_proc_3 >= 0
 c62: u_a6 - u_a5 - 676 y_a5_proc_0 - 1122 y_a5_proc_1 - 795 y_a5_proc_2
      - 578 y_a5_proc_3 >= 0
 c63: u_a6 - u_a7 - 1232 y_a7_proc_0 - 1232 y_a7_proc_1 - 1277 y_a7_proc_3 >= 0
 c64: u_a8 - u_a4 - 965 y_a4_proc_0 - 615 y_a4_proc_1 - 1181 y_a4_proc_2 >= 0
 c65: u_a9 - u_a3 - 962 y_a3_proc_0 - 786 y_a3_proc_1 - 1112 y_a3_proc_2
      - 908 y_a3_proc_3 >= 0
 c66: u_a5 - u_a9 - 1248 y_a9_proc_0 - 640 y_a9_proc_1 - 1022 y_a9_proc_2
      - 947 y_a9_proc_3 >= -1
 c67: - 1232 y_a7_proc_0 - 1232 y_a7_proc_1 - 1277 y_a7_proc_3 >= -1
 c68: u_a9 - u_a4 - 965 y_a4_proc_0 - 615 y_a4_proc_1 - 1181 y_a4_proc_2 >= 0
 c69: u_a2 - u_a6 - 982 y_a6_proc_0 - 650 y_a6_proc_1 - 1062 y_a6_proc_2
      - 1061 y_a6_proc_3 >= -1
 c70: u_a9 - u_a6 - 982 y_a6_proc_0 - 650 y_a6_proc_1 - 1062 y_a6_proc_2
      - 1061 y_a6_proc_3 >= 0
 c71: u_a6 - u_a2 - 1255 y_a2_proc_0 - 456 y_a2_proc_1 - 488 y_a2_proc_2
      - 517 y_a2_proc_3 >= 0
 c72: u_a1 - u_a0 - 898 y_a0_proc_2 >= -1306
 c73: u_a1 - u_a0 - 1070 y_a0_proc_3 >= -2598
 c74: u_a1 - u_a0 - 1001 y_a0_proc_0 >= -1306
 c75: u_a0 - u_a1 - 1061 y_a1_proc_2 >= -1279
 c76: u_a0 - u_a1 - 1159 y_a1_proc_3 >= -2571
 c77: u_a0 - u_a1 - 1229 y_a1_proc_0 >= -1279
 c78: u_a2 - u_a0 - 898 y_a0_proc_2 >= -2585
 c79: u_a2 - u_a0 - 1070 y_a0_proc_3 >= -1293
 c80: u_a2 - u_a0 - 1001 y_a0_proc_0 >= -1293
 c81: u_a0 - u_a2 - 488 y_a2_proc_2 >= -2584
 c82: u_a0 - u_a2 - 517 y_a2_proc_3 >= -1292
 c83: u_a0 - u_a2 - 1255 y_a2_proc_0 >= -1292
 c84: u_a3 - u_a0 - 898 y_a0_proc_2 >= -2571
 c85: u_a3 - u_a0 - 1070 y_a0_proc_3 >= -2571
 c86: u_a3 - u_a0 - 1001 y_a0_proc_0 >= -1279
 c87: u_a0 - u_a3 - 1112 y_a3_proc_2 >= -2598
 c88: u_a0 - u_a3 - 908 y_a3_proc_3 >= -2598
 c89: u_a0 - u_a3 - 962 y_a3_proc_0 >= -1306
 c90: u_a4 - u_a0 - 898 y_a0_proc_2 >= -2598
 c91: u_a4 - u_a0 - 1001 y_a0_proc_0 >= -1306
 c92: u_a0 - u_a4 - 1181 y_a4_proc_2 >= -2571
 c93: u_a0 - u_a4 - 965 y_a4_proc_0 >= -1279
 c94: u_a5 - u_a0 - 898 y_a0_proc_2 >= -2598
 c95: u_a5 - u_a0 - 1070 y_a0_proc_3 >= -1306
 c96: u_a5 - u_a0 - 1001 y_a0_proc_0 >= -1306
 c97: u_a0 - u_a5 - 795 y_a5_proc_2 >= -2571
 c98: u_a0 - u_a5 - 578 y_a5_proc_3 >= -1279
 c99: u_a0 - u_a5 - 676 y_a5_proc_0 >= -1279
 c100: u_a6 - u_a0 - 898 y_a0_proc_2 >= -2598
 c101: u_a6 - u_a0 - 1070 y_a0_proc_3 >= -1306
 c102: u_a6 - u_a0 - 1001 y_a0_proc_0 >= -1306
 c103: u_a0 - u_a6 - 1062 y_a6_proc_2 >= -2571
 c104: u_a0 - u_a6 - 1061 y_a6_proc_3 >= -1279
 c105: u_a0 - u_a6 - 982 y_a6_proc_0 >= -1279
 c106: u_a7 - u_a0 - 1070 y_a0_proc_3 >= -2598
 c107: u_a7 - u_a0 - 1001 y_a0_proc_0 >= -14
 c108: u_a0 - u_a7 - 1277 y_a7_proc_3 >= -2571
 c109: u_a0 - u_a7 - 1232 y_a7_proc_0 >= 13
 c110: u_a8 - u_a0 - 898 y_a0_proc_2 >= -1306
 c111: u_a8 - u_a0 - 1001 y_a0_proc_0 >= -1306
 c112: u_a0 - u_a8 - 1203 y_a8_proc_2 >= -1279
 c113: u_a0 - u_a8 - 689 y_a8_proc_0 >= -1279
 c114: u_a9 - u_a0 - 898 y_a0_proc_2 >= -2598
 c115: u_a9 - u_a0 - 1070 y_a0_proc_3 >= -2598
 c116: u_a9 - u_a0 - 1001 y_a0_proc_0 >= -1306
 c117: u_a0 - u_a9 - 1022 y_a9_proc_2 >= -2571
 c118: u_a0 - u_a9 - 947 y_a9_proc_3 >= -2571
 c119: u_a0 - u_a9 - 1248 y_a9_proc_0 >= -1279
 c120: u_a2 - u_a1 - 1061 y_a1_proc_2 >= -1306
 c121: u_a2 - u_a1 - 1159 y_a1_proc_3 >= -1306
 c122: u_a2 - u_a1 - 1229 y_a1_proc_0 >= -2598
 c123: u_a2 - u_a1 - 799 y_a1_proc_1 >= -2598
 c124: u_a1 - u_a2 - 488 y_a2_proc_2 >= -1279
 c125: u_a1 - u_a2 - 517 y_a2_proc_3 >= -1279
 c126: u_a1 - u_a2 - 1255 y_a2_proc_0 >= -2571
 c127: u_a1 - u_a2 - 456 y_a2_proc_1 >= -2571
 c128: u_a3 - u_a1 - 1061 y_a1_proc_2 >= -1279
 c129: u_a3 - u_a1 - 1159 y_a1_proc_3 >= -2571
 c130: u_a3 - u_a1 - 1229 y_a1_proc_0 >= -2571
 c131: u_a3 - u_a1 - 799 y_a1_proc_1 >= -1279
 c132: u_a1 - u_a3 - 1112 y_a3_proc_2 >= -1306
 c133: u_a1 - u_a3 - 908 y_a3_proc_3 >= -2598
 c134: u_a1 - u_a3 - 962 y_a3_proc_0 >= -2598
 c135: u_a1 - u_a3 - 786 y_a3_proc_1 >= -1306
 c136: u_a4 - u_a1 - 1061 y_a1_proc_2 >= -1306
 c137: u_a4 - u_a1 - 1229 y_a1_proc_0 >= -2598
 c138: u_a4 - u_a1 - 799 y_a1_proc_1 >= -1306
 c139: u_a1 - u_a4 - 1181 y_a4_proc_2 >= -1279
 c140: u_a1 - u_a4 - 965 y_a4_proc_0 >= -2571
 c141: u_a1 - u_a4 - 615 y_a4_proc_1 >= -1279
 c142: u_a5 - u_a1 - 1061 y_a1_proc_2 >= -1306
 c143: u_a5 - u_a1 - 1159 y_a1_proc_3 >= -1306
 c144: u_a5 - u_a1 - 1229 y_a1_proc_0 >= -2598
 c145: u_a5 - u_a1 - 799 y_a1_proc_1 >= -2598
 c146: u_a1 - u_a5 - 795 y_a5_proc_2 >= -1279
 c147: u_a1 - u_a5 - 578 y_a5_proc_3 >= -1279
 c148: u_a1 - u_a5 - 676 y_a5_proc_0 >= -2571
 c149: u_a1 - u_a5 - 1122 y_a5_proc_1 >= -2571
 c150: u_a6 - u_a1 - 1061 y_a1_proc_2 >= -1306
 c151: u_a6 - u_a1 - 1159 y_a1_proc_3 >= -1306
 c152: u_a6 - u_a1 - 1229 y_a1_proc_0 >= -2598
 c153: u_a6 - u_a1 - 799 y_a1_proc_1 >= -2598
 c154: u_a1 - u_a6 - 1062 y_a6_proc_2 >= -1279
 c155: u_a1 - u_a6 - 1061 y_a6_proc_3 >= -1279
 c156: u_a1 - u_a6 - 982 y_a6_proc_0 >= -2571
 c157: u_a1 - u_a6 - 650 y_a6_proc_1 >= -2571
 c158: u_a7 - u_a1 - 1159 y_a1_proc_3 >= -2571
 c159: u_a7 - u_a1 - 1229 y_a1_proc_0 >= -1279
 c160: u_a7 - u_a1 - 799 y_a1_proc_1 >= -2571
 c161: u_a1 - u_a7 - 1277 y_a7_proc_3 >= -2598
 c162: u_a1 - u_a7 - 1232 y_a7_proc_0 >= -1306
 c163: u_a1 - u_a7 - 1232 y_a7_proc_1 >= -2598
 c164: u_a8 - u_a1 - 1061 y_a1_proc_2 >= 13
 c165: u_a8 - u_a1 - 1229 y_a1_proc_0 >= -2571
 c166: u_a8 - u_a1 - 799 y_a1_proc_1 >= -2571
 c167: u_a1 - u_a8 - 1203 y_a8_proc_2 >= -14
 c168: u_a1 - u_a8 - 689 y_a8_proc_0 >= -2598
 c169: u_a1 - u_a8 - 1292 y_a8_proc_1 >= -2598
 c170: u_a9 - u_a1 - 1061 y_a1_proc_2 >= -1306
 c171: u_a9 - u_a1 - 1159 y_a1_proc_3 >= -2598
 c172: u_a9 - u_a1 - 1229 y_a1_proc_0 >= -2598
 c173: u_a9 - u_a1 - 799 y_a1_proc_1 >= -1306
 c174: u_a1 - u_a9 - 1022 y_a9_proc_2 >= -1279
 c175: u_a1 - u_a9 - 947 y_a9_proc_3 >= -2571
 c176: u_a1 - u_a9 - 1248 y_a9_proc_0 >= -2571
 c177: u_a1 - u_a9 - 640 y_a9_proc_1 >= -1279
 c178: u_a3 - u_a2 - 488 y_a2_proc_2 >= -2598
 c179: u_a3 - u_a2 - 517 y_a2_proc_3 >= -1306
 c180: u_a3 - u_a2 - 1255 y_a2_proc_0 >= -2598
 c181: u_a3 - u_a2 - 456 y_a2_proc_1 >= -1306
 c182: u_a2 - u_a3 - 1112 y_a3_proc_2 >= -2571
 c183: u_a2 - u_a3 - 908 y_a3_proc_3 >= -1279
 c184: u_a2 - u_a3 - 962 y_a3_proc_0 >= -2571
 c185: u_a2 - u_a3 - 786 y_a3_proc_1 >= -1279
 c186: u_a4 - u_a2 - 488 y_a2_proc_2 >= -2598
 c187: u_a4 - u_a2 - 1255 y_a2_proc_0 >= -2598
 c188: u_a4 - u_a2 - 456 y_a2_proc_1 >= -1306
 c189: u_a2 - u_a4 - 1181 y_a4_proc_2 >= -2571
 c190: u_a2 - u_a4 - 965 y_a4_proc_0 >= -2571
 c191: u_a2 - u_a4 - 615 y_a4_proc_1 >= -1279
 c192: u_a5 - u_a2 - 488 y_a2_proc_2 >= -2584
 c193: u_a5 - u_a2 - 517 y_a2_proc_3 >= 0
 c194: u_a5 - u_a2 - 1255 y_a2_proc_0 >= -2584
 c195: u_a5 - u_a2 - 456 y_a2_proc_1 >= -2584
 c196: u_a2 - u_a5 - 795 y_a5_proc_2 >= -2585
 c197: u_a2 - u_a5 - 578 y_a5_proc_3 >= -1
 c198: u_a2 - u_a5 - 676 y_a5_proc_0 >= -2585
 c199: u_a2 - u_a5 - 1122 y_a5_proc_1 >= -2585
 c200: u_a6 - u_a2 - 488 y_a2_proc_2 >= -2584
 c201: u_a6 - u_a2 - 517 y_a2_proc_3 >= 0
 c202: u_a6 - u_a2 - 1255 y_a2_proc_0 >= -2584
 c203: u_a6 - u_a2 - 456 y_a2_proc_1 >= -2584
 c204: u_a2 - u_a6 - 1062 y_a6_proc_2 >= -2585
 c205: u_a2 - u_a6 - 1061 y_a6_proc_3 >= -1
 c206: u_a2 - u_a6 - 982 y_a6_proc_0 >= -2585
 c207: u_a2 - u_a6 - 650 y_a6_proc_1 >= -2585
 c208: u_a7 - u_a2 - 517 y_a2_proc_3 >= -1279
 c209: u_a7 - u_a2 - 1255 y_a2_proc_0 >= -1279
 c210: u_a7 - u_a2 - 456 y_a2_proc_1 >= -2571
 c211: u_a2 - u_a7 - 1277 y_a7_proc_3 >= -1306
 c212: u_a2 - u_a7 - 1232 y_a7_proc_0 >= -1306
 c213: u_a2 - u_a7 - 1232 y_a7_proc_1 >= -2598
 c214: u_a8 - u_a2 - 488 y_a2_proc_2 >= -1306
 c215: u_a8 - u_a2 - 1255 y_a2_proc_0 >= -2598
 c216: u_a8 - u_a2 - 456 y_a2_proc_1 >= -2598
 c217: u_a2 - u_a8 - 1203 y_a8_proc_2 >= -1279
 c218: u_a2 - u_a8 - 689 y_a8_proc_0 >= -2571
 c219: u_a2 - u_a8 - 1292 y_a8_proc_1 >= -2571
 c220: u_a9 - u_a2 - 488 y_a2_proc_2 >= -2598
 c221: u_a9 - u_a2 - 517 y_a2_proc_3 >= -1306
 c222: u_a9 - u_a2 - 1255 y_a2_proc_0 >= -2598
 c223: u_a9 - u_a2 - 456 y_a2_proc_1 >= -1306
 c224: u_a2 - u_a9 - 1022 y_a9_proc_2 >= -2571
 c225: u_a2 - u_a9 - 947 y_a9_proc_3 >= -1279
 c226: u_a2 - u_a9 - 1248 y_a9_proc_0 >= -2571
 c227: u_a2 - u_a9 - 640 y_a9_proc_1 >= -1279
 c228: u_a4 - u_a3 - 1112 y_a3_proc_2 >= -2584
 c229: u_a4 - u_a3 - 962 y_a3_proc_0 >= -2584
 c230: u_a4 - u_a3 - 786 y_a3_proc_1 >= 0
 c231: u_a3 - u_a4 - 1181 y_a4_proc_2 >= -2585
 c232: u_a3 - u_a4 - 965 y_a4_proc_0 >= -2585
 c233: u_a3 - u_a4 - 615 y_a4_proc_1 >= -1
 c234: u_a5 - u_a3 - 1112 y_a3_proc_2 >= -2571
 c235: u_a5 - u_a3 - 908 y_a3_proc_3 >= -1279
 c236: u_a5 - u_a3 - 962 y_a3_proc_0 >= -2571
 c237: u_a5 - u_a3 - 786 y_a3_proc_1 >= -1279
 c238: u_a3 - u_a5 - 795 y_a5_proc_2 >= -2598
 c239: u_a3 - u_a5 - 578 y_a5_proc_3 >= -1306
 c240: u_a3 - u_a5 - 676 y_a5_proc_0 >= -2598
 c241: u_a3 - u_a5 - 1122 y_a5_proc_1 >= -1306
 c242: u_a6 - u_a3 - 1112 y_a3_proc_2 >= -2571
 c243: u_a6 - u_a3 - 908 y_a3_proc_3 >= -1279
 c244: u_a6 - u_a3 - 962 y_a3_proc_0 >= -2571
 c245: u_a6 - u_a3 - 786 y_a3_proc_1 >= -1279
 c246: u_a3 - u_a6 - 1062 y_a6_proc_2 >= -2598
 c247: u_a3 - u_a6 - 1061 y_a6_proc_3 >= -1306
 c248: u_a3 - u_a6 - 982 y_a6_proc_0 >= -2598
 c249: u_a3 - u_a6 - 650 y_a6_proc_1 >= -1306
 c250: u_a7 - u_a3 - 908 y_a3_proc_3 >= -2571
 c251: u_a7 - u_a3 - 962 y_a3_proc_0 >= -1279
 c252: u_a7 - u_a3 - 786 y_a3_proc_1 >= -1279
 c253: u_a3 - u_a7 - 1277 y_a7_proc_3 >= -2598
 c254: u_a3 - u_a7 - 1232 y_a7_proc_0 >= -1306
 c255: u_a3 - u_a7 - 1232 y_a7_proc_1 >= -1306
 c256: u_a8 - u_a3 - 1112 y_a3_proc_2 >= -1279
 c257: u_a8 - u_a3 - 962 y_a3_proc_0 >= -2571
 c258: u_a8 - u_a3 - 786 y_a3_proc_1 >= -1279
 c259: u_a3 - u_a8 - 1203 y_a8_proc_2 >= -1306
 c260: u_a3 - u_a8 - 689 y_a8_proc_0 >= -2598
 c261: u_a3 - u_a8 - 1292 y_a8_proc_1 >= -1306
 c262: u_a9 - u_a3 - 1112 y_a3_proc_2 >= -2584
 c263: u_a9 - u_a3 - 908 y_a3_proc_3 >= -2584
 c264: u_a9 - u_a3 - 962 y_a3_proc_0 >= -2584
 c265: u_a9 - u_a3 - 786 y_a3_proc_1 >= 0
 c266: u_a3 - u_a9 - 1022 y_a9_proc_2 >= -2585
 c267: u_a3 - u_a9 - 947 y_a9_proc_3 >= -2585
 c268: u_a3 - u_a9 - 1248 y_a9_proc_0 >= -2585
 c269: u_a3 - u_a9 - 640 y_a9_proc_1 >= -1
 c270: u_a5 - u_a4 - 1181 y_a4_proc_2 >= -2571
 c271: u_a5 - u_a4 - 965 y_a4_proc_0 >= -2571
 c272: u_a5 - u_a4 - 615 y_a4_proc_1 >= -1279
 c273: u_a4 - u_a5 - 795 y_a5_proc_2 >= -2598
 c274: u_a4 - u_a5 - 676 y_a5_proc_0 >= -2598
 c275: u_a4 - u_a5 - 1122 y_a5_proc_1 >= -1306
 c276: u_a6 - u_a4 - 1181 y_a4_proc_2 >= -2598
 c277: u_a6 - u_a4 - 965 y_a4_proc_0 >= -2598
 c278: u_a6 - u_a4 - 615 y_a4_proc_1 >= -1306
 c279: u_a4 - u_a6 - 1062 y_a6_proc_2 >= -2571
 c280: u_a4 - u_a6 - 982 y_a6_proc_0 >= -2571
 c281: u_a4 - u_a6 - 650 y_a6_proc_1 >= -1279
 c282: u_a7 - u_a4 - 965 y_a4_proc_0 >= -1279
 c283: u_a7 - u_a4 - 615 y_a4_proc_1 >= -1279
 c284: u_a4 - u_a7 - 1232 y_a7_proc_0 >= -1306
 c285: u_a4 - u_a7 - 1232 y_a7_proc_1 >= -1306
 c286: u_a8 - u_a4 - 1181 y_a4_proc_2 >= -1306
 c287: u_a8 - u_a4 - 965 y_a4_proc_0 >= -2598
 c288: u_a8 - u_a4 - 615 y_a4_proc_1 >= -1306
 c289: u_a4 - u_a8 - 1203 y_a8_proc_2 >= -1279
 c290: u_a4 - u_a8 - 689 y_a8_proc_0 >= -2571
 c291: u_a4 - u_a8 - 1292 y_a8_proc_1 >= -1279
 c292: u_a9 - u_a4 - 1181 y_a4_proc_2 >= -2584
 c293: u_a9 - u_a4 - 965 y_a4_proc_0 >= -2584
 c294: u_a9 - u_a4 - 615 y_a4_proc_1 >= 0
 c295: u_a4 - u_a9 - 1022 y_a9_proc_2 >= -2585
 c296: u_a4 - u_a9 - 1248 y_a9_proc_0 >= -2585
 c297: u_a4 - u_a9 - 640 y_a9_proc_1 >= -1
 c298: u_a6 - u_a5 - 795 y_a5_proc_2 >= -2584
 c299: u_a6 - u_a5 - 578 y_a5_proc_3 >= 0
 c300: u_a6 - u_a5 - 676 y_a5_proc_0 >= -2584
 c301: u_a6 - u_a5 - 1122 y_a5_proc_1 >= -2584
 c302: u_a5 - u_a6 - 1062 y_a6_proc_2 >= -2585
 c303: u_a5 - u_a6 - 1061 y_a6_proc_3 >= -1
 c304: u_a5 - u_a6 - 982 y_a6_proc_0 >= -2585
 c305: u_a5 - u_a6 - 650 y_a6_proc_1 >= -2585
 c306: u_a7 - u_a5 - 578 y_a5_proc_3 >= -1306
 c307: u_a7 - u_a5 - 676 y_a5_proc_0 >= -1306
 c308: u_a7 - u_a5 - 1122 y_a5_proc_1 >= -2598
 c309: u_a5 - u_a7 - 1277 y_a7_proc_3 >= -1279
 c310: u_a5 - u_a7 - 1232 y_a7_proc_0 >= -1279
 c311: u_a5 - u_a7 - 1232 y_a7_proc_1 >= -2571
 c312: u_a8 - u_a5 - 795 y_a5_proc_2 >= -1306
 c313: u_a8 - u_a5 - 676 y_a5_proc_0 >= -2598
 c314: u_a8 - u_a5 - 1122 y_a5_proc_1 >= -2598
 c315: u_a5 - u_a8 - 1203 y_a8_proc_2 >= -1279
 c316: u_a5 - u_a8 - 689 y_a8_proc_0 >= -2571
 c317: u_a5 - u_a8 - 1292 y_a8_proc_1 >= -2571
 c318: u_a9 - u_a5 - 795 y_a5_proc_2 >= -2598
 c319: u_a9 - u_a5 - 578 y_a5_proc_3 >= -1306
 c320: u_a9 - u_a5 - 676 y_a5_proc_0 >= -2598
 c321: u_a9 - u_a5 - 1122 y_a5_proc_1 >= -1306
 c322: u_a5 - u_a9 - 1022 y_a9_proc_2 >= -2571
 c323: u_a5 - u_a9 - 947 y_a9_proc_3 >= -1279
 c324: u_a5 - u_a9 - 1248 y_a9_proc_0 >= -2571
 c325: u_a5 - u_a9 - 640 y_a9_proc_1 >= -1279
 c326: u_a7 - u_a6 - 1061 y_a6_proc_3 >= -1306
 c327: u_a7 - u_a6 - 982 y_a6_proc_0 >= -1306
 c328: u_a7 - u_a6 - 650 y_a6_proc_1 >= -2598
 c329: u_a6 - u_a7 - 1277 y_a7_proc_3 >= -1279
 c330: u_a6 - u_a7 - 1232 y_a7_proc_0 >= -1279
 c331: u_a6 - u_a7 - 1232 y_a7_proc_1 >= -2571
 c332: u_a8 - u_a6 - 1062 y_a6_proc_2 >= -1306
 c333: u_a8 - u_a6 - 982 y_a6_proc_0 >= -2598
 c334: u_a8 - u_a6 - 650 y_a6_proc_1 >= -2598
 c335: u_a6 - u_a8 - 1203 y_a8_proc_2 >= -1279
 c336: u_a6 - u_a8 - 689 y_a8_proc_0 >= -2571
 c337: u_a6 - u_a8 - 1292 y_a8_proc_1 >= -2571
 c338: u_a9 - u_a6 - 1062 y_a6_proc_2 >= -2598
 c339: u_a9 - u_a6 - 1061 y_a6_proc_3 >= -1306
 c340: u_a9 - u_a6 - 982 y_a6_proc_0 >= -2598
 c341: u_a9 - u_a6 - 650 y_a6_proc_1 >= -1306
 c342: u_a6 - u_a9 - 1022 y_a9_proc_2 >= -2571
 c343: u_a6 - u_a9 - 947 y_a9_proc_3 >= -1279
 c344: u_a6 - u_a9 - 1248 y_a9_proc_0 >= -2571
 c345: u_a6 - u_a9 - 640 y_a9_proc_1 >= -1279
 c346: u_a8 - u_a7 - 1232 y_a7_proc_0 >= -1279
 c347: u_a8 - u_a7 - 1232 y_a7_proc_1 >= -2571
 c348: u_a7 - u_a8 - 689 y_a8_proc_0 >= -1306
 c349: u_a7 - u_a8 - 1292 y_a8_proc_1 >= -2598
 c350: u_a9 - u_a7 - 1277 y_a7_proc_3 >= -2598
 c351: u_a9 - u_a7 - 1232 y_a7_proc_0 >= -1306
 c352: u_a9 - u_a7 - 1232 y_a7_proc_1 >= -1306
 c353: u_a7 - u_a9 - 947 y_a9_proc_3 >= -2571
 c354: u_a7 - u_a9 - 1248 y_a9_proc_0 >= -1279
 c355: u_a7 - u_a9 - 640 y_a9_proc_1 >= -1279
 c356: u_a9 - u_a8 - 1203 y_a8_proc_2 >= -1279
 c357: u_a9 - u_a8 - 689 y_a8_proc_0 >= -2571
 c358: u_a9 - u_a8 - 1292 y_a8_proc_1 >= -1279
 c359: u_a8 - u_a9 - 1022 y_a9_proc_2 >= -1306
 c360: u_a8 - u_a9 - 1248 y_a9_proc_0 >= -2598
 c361: u_a8 - u_a9 - 640 y_a9_proc_1 >= -1306

Bounds
End
