benchmark/results/graph__10-1000-0.10-04_1/graph__10-1000-0.10-04_1_QuintonOs_Benders_primal_sub.txt
solution for: Quinton Bounded Benders_primal_sub
objective: 0.000427259
status: OPTIMAL_SOLUTION(2)
u_a0=13.526
u_a1=12.954
u_a2=13.059
u_a3=13.407
u_a4=13.743
u_a5=13.279
u_a6=13.526
u_a8=26.407
u_a9=14.006
tau=0.000
y_a0_proc_0=0.000
y_a1_proc_2=0.000
y_a2_proc_3=0.000
y_a3_proc_1=0.000
y_a4_proc_1=0.000
y_a5_proc_3=0.000
y_a6_proc_3=0.000
y_a7_proc_0=0.000
y_a8_proc_2=0.000
y_a9_proc_1=0.000
